p cnf 967 2484
51 -2 -1 0
-51 2 0
-51 1 0
52 -51 -700 0
-52 51 0
-52 700 0
53 -701 -4 0
-53 701 0
-53 4 0
54 -53 -6 0
-54 53 0
-54 6 0
55 -702 -703 0
-55 702 0
-55 703 0
56 -704 -705 0
-56 704 0
-56 705 0
57 -56 -706 0
-57 56 0
-57 706 0
58 -707 -55 0
-58 707 0
-58 55 0
59 -708 -10 0
-59 708 0
-59 10 0
60 -59 -9 0
-60 59 0
-60 9 0
61 -709 -58 0
-61 709 0
-61 58 0
62 -13 -12 0
-62 13 0
-62 12 0
63 -62 -710 0
-63 62 0
-63 710 0
64 -711 -61 0
-64 711 0
-64 61 0
65 -15 -712 0
-65 15 0
-65 712 0
66 -65 -713 0
-66 65 0
-66 713 0
67 -714 -64 0
-67 714 0
-67 64 0
68 -715 -701 0
-68 715 0
-68 701 0
69 -68 -716 0
-69 68 0
-69 716 0
70 -717 -67 0
-70 717 0
-70 67 0
71 -19 -18 0
-71 19 0
-71 18 0
72 -71 -718 0
-72 71 0
-72 718 0
73 -719 -70 0
-73 719 0
-73 70 0
74 -720 -721 0
-74 720 0
-74 721 0
75 -74 -23 0
-75 74 0
-75 23 0
76 -722 -73 0
-76 722 0
-76 73 0
77 -723 -724 0
-77 723 0
-77 724 0
78 -77 -25 0
-78 77 0
-78 25 0
79 -725 -76 0
-79 725 0
-79 76 0
80 -724 -701 0
-80 724 0
-80 701 0
81 -80 -726 0
-81 80 0
-81 726 0
82 -727 -79 0
-82 727 0
-82 79 0
83 -27 -710 0
-83 27 0
-83 710 0
84 -83 -728 0
-84 83 0
-84 728 0
85 -729 -82 0
-85 729 0
-85 82 0
86 -29 -6 0
-86 29 0
-86 6 0
87 -86 -728 0
-87 86 0
-87 728 0
88 -730 -85 0
-88 730 0
-88 85 0
89 -30 -720 0
-89 30 0
-89 720 0
90 -89 -731 0
-90 89 0
-90 731 0
91 -732 -88 0
-91 732 0
-91 88 0
92 -733 -6 0
-92 733 0
-92 6 0
93 -92 -32 0
-93 92 0
-93 32 0
94 -734 -91 0
-94 734 0
-94 91 0
95 -735 -12 0
-95 735 0
-95 12 0
96 -95 -710 0
-96 95 0
-96 710 0
97 -736 -94 0
-97 736 0
-97 94 0
98 -29 -700 0
-98 29 0
-98 700 0
99 -98 -33 0
-99 98 0
-99 33 0
100 -737 -97 0
-100 737 0
-100 97 0
101 -738 -26 0
-101 738 0
-101 26 0
102 -101 -739 0
-102 101 0
-102 739 0
103 -740 -100 0
-103 740 0
-103 100 0
104 -741 -713 0
-104 741 0
-104 713 0
105 -104 -739 0
-105 104 0
-105 739 0
106 -742 -103 0
-106 742 0
-106 103 0
107 -726 -743 0
-107 726 0
-107 743 0
108 -107 -744 0
-108 107 0
-108 744 0
109 -745 -106 0
-109 745 0
-109 106 0
110 -37 -746 0
-110 37 0
-110 746 0
111 -110 -3 0
-111 110 0
-111 3 0
112 -747 -109 0
-112 747 0
-112 109 0
113 -38 -748 0
-113 38 0
-113 748 0
114 -113 -39 0
-114 113 0
-114 39 0
115 -749 -112 0
-115 749 0
-115 112 0
116 -35 -748 0
-116 35 0
-116 748 0
117 -116 -750 0
-117 116 0
-117 750 0
118 -751 -115 0
-118 751 0
-118 115 0
119 -752 -41 0
-119 752 0
-119 41 0
120 -119 -25 0
-120 119 0
-120 25 0
121 -753 -118 0
-121 753 0
-121 118 0
122 -18 -12 0
-122 18 0
-122 12 0
123 -122 -700 0
-123 122 0
-123 700 0
124 -754 -121 0
-124 754 0
-124 121 0
125 -755 -36 0
-125 755 0
-125 36 0
126 -125 -42 0
-126 125 0
-126 42 0
127 -756 -124 0
-127 756 0
-127 124 0
128 -757 -720 0
-128 757 0
-128 720 0
129 -128 -746 0
-129 128 0
-129 746 0
130 -758 -127 0
-130 758 0
-130 127 0
131 -24 -759 0
-131 24 0
-131 759 0
132 -131 -37 0
-132 131 0
-132 37 0
133 -760 -130 0
-133 760 0
-133 130 0
134 -43 -738 0
-134 43 0
-134 738 0
135 -134 -28 0
-135 134 0
-135 28 0
136 -761 -133 0
-136 761 0
-136 133 0
137 -16 -743 0
-137 16 0
-137 743 0
138 -137 -40 0
-138 137 0
-138 40 0
139 -762 -136 0
-139 762 0
-139 136 0
140 -763 -733 0
-140 763 0
-140 733 0
141 -140 -764 0
-141 140 0
-141 764 0
142 -765 -139 0
-142 765 0
-142 139 0
143 -47 -733 0
-143 47 0
-143 733 0
144 -143 -766 0
-144 143 0
-144 766 0
145 -767 -142 0
-145 767 0
-145 142 0
146 -744 -748 0
-146 744 0
-146 748 0
147 -146 -706 0
-147 146 0
-147 706 0
148 -768 -145 0
-148 768 0
-148 145 0
149 -755 -2 0
-149 755 0
-149 2 0
150 -149 -744 0
-150 149 0
-150 744 0
151 -769 -148 0
-151 769 0
-151 148 0
152 -13 -2 0
-152 13 0
-152 2 0
153 -152 -35 0
-153 152 0
-153 35 0
154 -770 -151 0
-154 770 0
-154 151 0
155 -22 -16 0
-155 22 0
-155 16 0
156 -155 -700 0
-156 155 0
-156 700 0
157 -771 -154 0
-157 771 0
-157 154 0
158 -772 -721 0
-158 772 0
-158 721 0
159 -158 -773 0
-159 158 0
-159 773 0
160 -774 -157 0
-160 774 0
-160 157 0
161 -775 -766 0
-161 775 0
-161 766 0
162 -161 -776 0
-162 161 0
-162 776 0
163 -777 -160 0
-163 777 0
-163 160 0
164 -47 -726 0
-164 47 0
-164 726 0
165 -164 -30 0
-165 164 0
-165 30 0
166 -778 -163 0
-166 778 0
-166 163 0
167 -723 -21 0
-167 723 0
-167 21 0
168 -167 -3 0
-168 167 0
-168 3 0
169 -779 -166 0
-169 779 0
-169 166 0
170 -155 -46 0
-170 155 0
-170 46 0
171 -780 -169 0
-171 780 0
-171 169 0
172 -13 -6 0
-172 13 0
-172 6 0
173 -172 -20 0
-173 172 0
-173 20 0
174 -781 -171 0
-174 781 0
-174 171 0
175 -782 -783 0
-175 782 0
-175 783 0
176 -175 -3 0
-176 175 0
-176 3 0
177 -784 -174 0
-177 784 0
-177 174 0
178 -26 -8 0
-178 26 0
-178 8 0
179 -178 -23 0
-179 178 0
-179 23 0
180 -785 -177 0
-180 785 0
-180 177 0
181 -14 -775 0
-181 14 0
-181 775 0
182 -181 -766 0
-182 181 0
-182 766 0
183 -786 -180 0
-183 786 0
-183 180 0
184 -41 -20 0
-184 41 0
-184 20 0
185 -184 -787 0
-185 184 0
-185 787 0
186 -788 -183 0
-186 788 0
-186 183 0
187 -715 -704 0
-187 715 0
-187 704 0
188 -187 -700 0
-188 187 0
-188 700 0
189 -789 -186 0
-189 789 0
-189 186 0
190 -31 -13 0
-190 31 0
-190 13 0
191 -190 -11 0
-191 190 0
-191 11 0
192 -790 -189 0
-192 790 0
-192 189 0
193 -31 -775 0
-193 31 0
-193 775 0
194 -193 -766 0
-194 193 0
-194 766 0
195 -791 -192 0
-195 791 0
-195 192 0
196 -792 -29 0
-196 792 0
-196 29 0
197 -196 -750 0
-197 196 0
-197 750 0
198 -793 -195 0
-198 793 0
-198 195 0
199 -738 -723 0
-199 738 0
-199 723 0
200 -199 -700 0
-200 199 0
-200 700 0
201 -794 -198 0
-201 794 0
-201 198 0
202 -715 -14 0
-202 715 0
-202 14 0
203 -202 -35 0
-203 202 0
-203 35 0
204 -795 -201 0
-204 795 0
-204 201 0
205 -720 -7 0
-205 720 0
-205 7 0
206 -205 -28 0
-206 205 0
-206 28 0
207 -796 -204 0
-207 796 0
-207 204 0
208 -797 -705 0
-208 797 0
-208 705 0
209 -208 -775 0
-209 208 0
-209 775 0
210 -798 -207 0
-210 798 0
-210 207 0
211 -744 -1 0
-211 744 0
-211 1 0
212 -211 -35 0
-212 211 0
-212 35 0
213 -799 -210 0
-213 799 0
-213 210 0
214 -17 -704 0
-214 17 0
-214 704 0
215 -214 -797 0
-215 214 0
-215 797 0
216 -800 -213 0
-216 800 0
-216 213 0
217 -710 -775 0
-217 710 0
-217 775 0
218 -217 -33 0
-218 217 0
-218 33 0
219 -801 -216 0
-219 801 0
-219 216 0
220 -720 -19 0
-220 720 0
-220 19 0
221 -220 -775 0
-221 220 0
-221 775 0
222 -802 -219 0
-222 802 0
-222 219 0
223 -733 -17 0
-223 733 0
-223 17 0
224 -223 -787 0
-224 223 0
-224 787 0
225 -803 -222 0
-225 803 0
-225 222 0
226 -744 -12 0
-226 744 0
-226 12 0
227 -226 -766 0
-227 226 0
-227 766 0
228 -804 -225 0
-228 804 0
-228 225 0
229 -783 -716 0
-229 783 0
-229 716 0
230 -229 -766 0
-230 229 0
-230 766 0
231 -805 -228 0
-231 805 0
-231 228 0
232 -38 -20 0
-232 38 0
-232 20 0
233 -232 -766 0
-233 232 0
-233 766 0
234 -806 -231 0
-234 806 0
-234 231 0
235 -24 -701 0
-235 24 0
-235 701 0
236 -235 -797 0
-236 235 0
-236 797 0
237 -807 -234 0
-237 807 0
-237 234 0
238 -710 -8 0
-238 710 0
-238 8 0
239 -238 -731 0
-239 238 0
-239 731 0
240 -808 -237 0
-240 808 0
-240 237 0
241 -18 -759 0
-241 18 0
-241 759 0
242 -241 -741 0
-242 241 0
-242 741 0
243 -809 -240 0
-243 809 0
-243 240 0
244 -810 -706 0
-244 810 0
-244 706 0
245 -244 -776 0
-245 244 0
-245 776 0
246 -811 -243 0
-246 811 0
-246 243 0
247 -713 -7 0
-247 713 0
-247 7 0
248 -247 -752 0
-248 247 0
-248 752 0
249 -812 -246 0
-249 812 0
-249 246 0
250 -813 -716 0
-250 813 0
-250 716 0
251 -250 -746 0
-251 250 0
-251 746 0
252 -814 -249 0
-252 814 0
-252 249 0
253 -733 -748 0
-253 733 0
-253 748 0
254 -253 -731 0
-254 253 0
-254 731 0
255 -815 -252 0
-255 815 0
-255 252 0
256 -28 -12 0
-256 28 0
-256 12 0
257 -256 -708 0
-257 256 0
-257 708 0
258 -816 -255 0
-258 816 0
-258 255 0
259 -45 -735 0
-259 45 0
-259 735 0
260 -259 -706 0
-260 259 0
-260 706 0
261 -817 -258 0
-261 817 0
-261 258 0
262 -757 -724 0
-262 757 0
-262 724 0
263 -262 -731 0
-263 262 0
-263 731 0
264 -818 -261 0
-264 818 0
-264 261 0
265 -26 -721 0
-265 26 0
-265 721 0
266 -265 -27 0
-266 265 0
-266 27 0
267 -819 -264 0
-267 819 0
-267 264 0
268 -37 -7 0
-268 37 0
-268 7 0
269 -268 -701 0
-269 268 0
-269 701 0
270 -820 -267 0
-270 820 0
-270 267 0
271 -726 -24 0
-271 726 0
-271 24 0
272 -271 -810 0
-272 271 0
-272 810 0
273 -821 -270 0
-273 821 0
-273 270 0
274 -30 -20 0
-274 30 0
-274 20 0
275 -274 -35 0
-275 274 0
-275 35 0
276 -822 -273 0
-276 822 0
-276 273 0
277 -813 -27 0
-277 813 0
-277 27 0
278 -277 -741 0
-278 277 0
-278 741 0
279 -823 -276 0
-279 823 0
-279 276 0
280 -764 -712 0
-280 764 0
-280 712 0
281 -280 -28 0
-281 280 0
-281 28 0
282 -824 -279 0
-282 824 0
-282 279 0
283 -724 -5 0
-283 724 0
-283 5 0
284 -283 -792 0
-284 283 0
-284 792 0
285 -825 -282 0
-285 825 0
-285 282 0
286 -20 -17 0
-286 20 0
-286 17 0
287 -286 -750 0
-287 286 0
-287 750 0
288 -826 -285 0
-288 826 0
-288 285 0
289 -763 -44 0
-289 763 0
-289 44 0
290 -289 -728 0
-290 289 0
-290 728 0
291 -827 -288 0
-291 827 0
-291 288 0
292 -38 -30 0
-292 38 0
-292 30 0
293 -292 -764 0
-293 292 0
-293 764 0
294 -828 -291 0
-294 828 0
-294 291 0
295 -718 -16 0
-295 718 0
-295 16 0
296 -295 -728 0
-296 295 0
-296 728 0
297 -829 -294 0
-297 829 0
-297 294 0
298 -752 -748 0
-298 752 0
-298 748 0
299 -298 -718 0
-299 298 0
-299 718 0
300 -830 -297 0
-300 830 0
-300 297 0
301 -731 -721 0
-301 731 0
-301 721 0
302 -301 -750 0
-302 301 0
-302 750 0
303 -831 -300 0
-303 831 0
-303 300 0
304 -728 -739 0
-304 728 0
-304 739 0
305 -304 -776 0
-305 304 0
-305 776 0
306 -832 -303 0
-306 832 0
-306 303 0
307 -247 -13 0
-307 247 0
-307 13 0
308 -833 -306 0
-308 833 0
-308 306 0
309 -738 -4 0
-309 738 0
-309 4 0
310 -309 -33 0
-310 309 0
-310 33 0
311 -834 -308 0
-311 834 0
-311 308 0
312 -733 -704 0
-312 733 0
-312 704 0
313 -312 -787 0
-313 312 0
-313 787 0
314 -835 -311 0
-314 835 0
-314 311 0
315 -735 -836 0
-315 735 0
-315 836 0
316 -315 -792 0
-316 315 0
-316 792 0
317 -837 -314 0
-317 837 0
-317 314 0
318 -16 -712 0
-318 16 0
-318 712 0
319 -318 -716 0
-319 318 0
-319 716 0
320 -838 -317 0
-320 838 0
-320 317 0
321 -713 -3 0
-321 713 0
-321 3 0
322 -321 -773 0
-322 321 0
-322 773 0
323 -839 -320 0
-323 839 0
-323 320 0
324 -775 -12 0
-324 775 0
-324 12 0
325 -324 -766 0
-325 324 0
-325 766 0
326 -840 -323 0
-326 840 0
-326 323 0
327 -772 -1 0
-327 772 0
-327 1 0
328 -327 -47 0
-328 327 0
-328 47 0
329 -841 -326 0
-329 841 0
-329 326 0
330 -755 -5 0
-330 755 0
-330 5 0
331 -330 -776 0
-331 330 0
-331 776 0
332 -842 -329 0
-332 842 0
-332 329 0
333 -16 -4 0
-333 16 0
-333 4 0
334 -333 -708 0
-334 333 0
-334 708 0
335 -843 -332 0
-335 843 0
-335 332 0
336 -29 -705 0
-336 29 0
-336 705 0
337 -336 -39 0
-337 336 0
-337 39 0
338 -844 -335 0
-338 844 0
-338 335 0
339 -705 -712 0
-339 705 0
-339 712 0
340 -339 -726 0
-340 339 0
-340 726 0
341 -845 -338 0
-341 845 0
-341 338 0
342 -716 -712 0
-342 716 0
-342 712 0
343 -342 -764 0
-343 342 0
-343 764 0
344 -846 -341 0
-344 846 0
-344 341 0
345 -49 -45 0
-345 49 0
-345 45 0
346 -345 -710 0
-346 345 0
-346 710 0
347 -847 -344 0
-347 847 0
-347 344 0
348 -21 -12 0
-348 21 0
-348 12 0
349 -348 -750 0
-349 348 0
-349 750 0
350 -848 -347 0
-350 848 0
-350 347 0
351 -718 -18 0
-351 718 0
-351 18 0
352 -351 -10 0
-352 351 0
-352 10 0
353 -849 -350 0
-353 849 0
-353 350 0
354 -755 -26 0
-354 755 0
-354 26 0
355 -354 -750 0
-355 354 0
-355 750 0
356 -850 -353 0
-356 850 0
-356 353 0
357 -26 -21 0
-357 26 0
-357 21 0
358 -357 -766 0
-358 357 0
-358 766 0
359 -851 -356 0
-359 851 0
-359 356 0
360 -731 -12 0
-360 731 0
-360 12 0
361 -360 -728 0
-361 360 0
-361 728 0
362 -852 -359 0
-362 852 0
-362 359 0
363 -853 -19 0
-363 853 0
-363 19 0
364 -363 -718 0
-364 363 0
-364 718 0
365 -854 -362 0
-365 854 0
-365 362 0
366 -41 -29 0
-366 41 0
-366 29 0
367 -366 -3 0
-367 366 0
-367 3 0
368 -855 -365 0
-368 855 0
-368 365 0
369 -726 -21 0
-369 726 0
-369 21 0
370 -369 -766 0
-370 369 0
-370 766 0
371 -856 -368 0
-371 856 0
-371 368 0
372 -726 -715 0
-372 726 0
-372 715 0
373 -372 -797 0
-373 372 0
-373 797 0
374 -857 -371 0
-374 857 0
-374 371 0
375 -720 -10 0
-375 720 0
-375 10 0
376 -375 -25 0
-376 375 0
-376 25 0
377 -858 -374 0
-377 858 0
-377 374 0
378 -30 -18 0
-378 30 0
-378 18 0
379 -378 -20 0
-379 378 0
-379 20 0
380 -859 -377 0
-380 859 0
-380 377 0
381 -782 -720 0
-381 782 0
-381 720 0
382 -381 -33 0
-382 381 0
-382 33 0
383 -860 -380 0
-383 860 0
-383 380 0
384 -43 -6 0
-384 43 0
-384 6 0
385 -384 -720 0
-385 384 0
-385 720 0
386 -861 -383 0
-386 861 0
-386 383 0
387 -712 -836 0
-387 712 0
-387 836 0
388 -387 -37 0
-388 387 0
-388 37 0
389 -862 -386 0
-389 862 0
-389 386 0
390 -787 -853 0
-390 787 0
-390 853 0
391 -390 -9 0
-391 390 0
-391 9 0
392 -863 -389 0
-392 863 0
-392 389 0
393 -757 -716 0
-393 757 0
-393 716 0
394 -393 -32 0
-394 393 0
-394 32 0
395 -864 -392 0
-395 864 0
-395 392 0
396 -759 -1 0
-396 759 0
-396 1 0
397 -396 -726 0
-397 396 0
-397 726 0
398 -865 -395 0
-398 865 0
-398 395 0
399 -46 -27 0
-399 46 0
-399 27 0
400 -399 -710 0
-400 399 0
-400 710 0
401 -866 -398 0
-401 866 0
-401 398 0
402 -49 -22 0
-402 49 0
-402 22 0
403 -402 -12 0
-403 402 0
-403 12 0
404 -867 -401 0
-404 867 0
-404 401 0
405 -755 -14 0
-405 755 0
-405 14 0
406 -405 -9 0
-406 405 0
-406 9 0
407 -868 -404 0
-407 868 0
-407 404 0
408 -735 -5 0
-408 735 0
-408 5 0
409 -408 -29 0
-409 408 0
-409 29 0
410 -869 -407 0
-410 869 0
-410 407 0
411 -772 -797 0
-411 772 0
-411 797 0
412 -411 -46 0
-412 411 0
-412 46 0
413 -870 -410 0
-413 870 0
-413 410 0
414 -40 -1 0
-414 40 0
-414 1 0
415 -414 -11 0
-415 414 0
-415 11 0
416 -871 -413 0
-416 871 0
-416 413 0
417 -41 -759 0
-417 41 0
-417 759 0
418 -417 -37 0
-418 417 0
-418 37 0
419 -872 -416 0
-419 872 0
-419 416 0
420 -733 -1 0
-420 733 0
-420 1 0
421 -420 -3 0
-421 420 0
-421 3 0
422 -873 -419 0
-422 873 0
-422 419 0
423 -41 -5 0
-423 41 0
-423 5 0
424 -423 -706 0
-424 423 0
-424 706 0
425 -874 -422 0
-425 874 0
-425 422 0
426 -47 -34 0
-426 47 0
-426 34 0
427 -426 -706 0
-427 426 0
-427 706 0
428 -875 -425 0
-428 875 0
-428 425 0
429 -50 -21 0
-429 50 0
-429 21 0
430 -429 -34 0
-430 429 0
-430 34 0
431 -876 -428 0
-431 876 0
-431 428 0
432 -35 -724 0
-432 35 0
-432 724 0
433 -432 -9 0
-433 432 0
-433 9 0
434 -877 -431 0
-434 877 0
-434 431 0
435 -752 -715 0
-435 752 0
-435 715 0
436 -435 -773 0
-436 435 0
-436 773 0
437 -878 -434 0
-437 878 0
-437 434 0
438 -41 -797 0
-438 41 0
-438 797 0
439 -438 -12 0
-439 438 0
-439 12 0
440 -879 -437 0
-440 879 0
-440 437 0
441 -41 -27 0
-441 41 0
-441 27 0
442 -441 -728 0
-442 441 0
-442 728 0
443 -880 -440 0
-443 880 0
-443 440 0
444 -30 -16 0
-444 30 0
-444 16 0
445 -444 -39 0
-445 444 0
-445 39 0
446 -881 -443 0
-446 881 0
-446 443 0
447 -748 -22 0
-447 748 0
-447 22 0
448 -447 -10 0
-448 447 0
-448 10 0
449 -882 -446 0
-449 882 0
-449 446 0
450 -704 -5 0
-450 704 0
-450 5 0
451 -450 -787 0
-451 450 0
-451 787 0
452 -883 -449 0
-452 883 0
-452 449 0
453 -884 -37 0
-453 884 0
-453 37 0
454 -453 -48 0
-454 453 0
-454 48 0
455 -885 -452 0
-455 885 0
-455 452 0
456 -18 -15 0
-456 18 0
-456 15 0
457 -456 -8 0
-457 456 0
-457 8 0
458 -886 -455 0
-458 886 0
-458 455 0
459 -813 -43 0
-459 813 0
-459 43 0
460 -459 -746 0
-460 459 0
-460 746 0
461 -887 -458 0
-461 887 0
-461 458 0
462 -50 -7 0
-462 50 0
-462 7 0
463 -462 -32 0
-463 462 0
-463 32 0
464 -888 -461 0
-464 888 0
-464 461 0
465 -47 -739 0
-465 47 0
-465 739 0
466 -465 -706 0
-466 465 0
-466 706 0
467 -889 -464 0
-467 889 0
-467 464 0
468 -735 -15 0
-468 735 0
-468 15 0
469 -468 -45 0
-469 468 0
-469 45 0
470 -890 -467 0
-470 890 0
-470 467 0
471 -813 -766 0
-471 813 0
-471 766 0
472 -471 -9 0
-472 471 0
-472 9 0
473 -891 -470 0
-473 891 0
-473 470 0
474 -772 -16 0
-474 772 0
-474 16 0
475 -474 -720 0
-475 474 0
-475 720 0
476 -892 -473 0
-476 892 0
-476 473 0
477 -46 -757 0
-477 46 0
-477 757 0
478 -477 -766 0
-478 477 0
-478 766 0
479 -893 -476 0
-479 893 0
-479 476 0
480 -713 -5 0
-480 713 0
-480 5 0
481 -480 -744 0
-481 480 0
-481 744 0
482 -894 -479 0
-482 894 0
-482 479 0
483 -757 -731 0
-483 757 0
-483 731 0
484 -483 -728 0
-484 483 0
-484 728 0
485 -895 -482 0
-485 895 0
-485 482 0
486 -45 -11 0
-486 45 0
-486 11 0
487 -486 -32 0
-487 486 0
-487 32 0
488 -896 -485 0
-488 896 0
-488 485 0
489 -721 -2 0
-489 721 0
-489 2 0
490 -489 -712 0
-490 489 0
-490 712 0
491 -897 -488 0
-491 897 0
-491 488 0
492 -38 -783 0
-492 38 0
-492 783 0
493 -492 -773 0
-493 492 0
-493 773 0
494 -898 -491 0
-494 898 0
-494 491 0
495 -43 -17 0
-495 43 0
-495 17 0
496 -495 -752 0
-496 495 0
-496 752 0
497 -899 -494 0
-497 899 0
-497 494 0
498 -755 -6 0
-498 755 0
-498 6 0
499 -498 -700 0
-499 498 0
-499 700 0
500 -900 -497 0
-500 900 0
-500 497 0
501 -775 -759 0
-501 775 0
-501 759 0
502 -501 -14 0
-502 501 0
-502 14 0
503 -901 -500 0
-503 901 0
-503 500 0
504 -797 -716 0
-504 797 0
-504 716 0
505 -504 -706 0
-505 504 0
-505 706 0
506 -902 -503 0
-506 902 0
-506 503 0
507 -733 -759 0
-507 733 0
-507 759 0
508 -507 -704 0
-508 507 0
-508 704 0
509 -903 -506 0
-509 903 0
-509 506 0
510 -724 -4 0
-510 724 0
-510 4 0
511 -510 -748 0
-511 510 0
-511 748 0
512 -904 -509 0
-512 904 0
-512 509 0
513 -36 -14 0
-513 36 0
-513 14 0
514 -513 -731 0
-514 513 0
-514 731 0
515 -905 -512 0
-515 905 0
-515 512 0
516 -884 -735 0
-516 884 0
-516 735 0
517 -516 -748 0
-517 516 0
-517 748 0
518 -906 -515 0
-518 906 0
-518 515 0
519 -735 -759 0
-519 735 0
-519 759 0
520 -519 -20 0
-520 519 0
-520 20 0
521 -907 -518 0
-521 907 0
-521 518 0
522 -757 -27 0
-522 757 0
-522 27 0
523 -522 -776 0
-523 522 0
-523 776 0
524 -908 -521 0
-524 908 0
-524 521 0
525 -772 -34 0
-525 772 0
-525 34 0
526 -525 -710 0
-526 525 0
-526 710 0
527 -909 -524 0
-527 909 0
-527 524 0
528 -813 -710 0
-528 813 0
-528 710 0
529 -528 -728 0
-529 528 0
-529 728 0
530 -910 -527 0
-530 910 0
-530 527 0
531 -782 -18 0
-531 782 0
-531 18 0
532 -531 -49 0
-532 531 0
-532 49 0
533 -911 -530 0
-533 911 0
-533 530 0
534 -764 -30 0
-534 764 0
-534 30 0
535 -534 -787 0
-535 534 0
-535 787 0
536 -912 -533 0
-536 912 0
-536 533 0
537 -48 -836 0
-537 48 0
-537 836 0
538 -537 -792 0
-538 537 0
-538 792 0
539 -913 -536 0
-539 913 0
-539 536 0
540 -757 -22 0
-540 757 0
-540 22 0
541 -540 -744 0
-541 540 0
-541 744 0
542 -914 -539 0
-542 914 0
-542 539 0
543 -18 -17 0
-543 18 0
-543 17 0
544 -543 -36 0
-544 543 0
-544 36 0
545 -915 -542 0
-545 915 0
-545 542 0
546 -733 -718 0
-546 733 0
-546 718 0
547 -546 -766 0
-547 546 0
-547 766 0
548 -916 -545 0
-548 916 0
-548 545 0
549 -31 -2 0
-549 31 0
-549 2 0
550 -549 -42 0
-550 549 0
-550 42 0
551 -917 -548 0
-551 917 0
-551 548 0
552 -884 -46 0
-552 884 0
-552 46 0
553 -552 -708 0
-553 552 0
-553 708 0
554 -918 -551 0
-554 918 0
-554 551 0
555 -4 -836 0
-555 4 0
-555 836 0
556 -555 -10 0
-556 555 0
-556 10 0
557 -919 -554 0
-557 919 0
-557 554 0
558 -704 -7 0
-558 704 0
-558 7 0
559 -558 -700 0
-559 558 0
-559 700 0
560 -920 -557 0
-560 920 0
-560 557 0
561 -764 -755 0
-561 764 0
-561 755 0
562 -561 -731 0
-562 561 0
-562 731 0
563 -921 -560 0
-563 921 0
-563 560 0
564 -763 -17 0
-564 763 0
-564 17 0
565 -564 -720 0
-565 564 0
-565 720 0
566 -922 -563 0
-566 922 0
-566 563 0
567 -775 -4 0
-567 775 0
-567 4 0
568 -567 -20 0
-568 567 0
-568 20 0
569 -923 -566 0
-569 923 0
-569 566 0
570 -122 -39 0
-570 122 0
-570 39 0
571 -924 -569 0
-571 924 0
-571 569 0
572 -48 -733 0
-572 48 0
-572 733 0
573 -572 -36 0
-573 572 0
-573 36 0
574 -925 -571 0
-574 925 0
-574 571 0
575 -37 -8 0
-575 37 0
-575 8 0
576 -575 -746 0
-576 575 0
-576 746 0
577 -926 -574 0
-577 926 0
-577 574 0
578 -724 -704 0
-578 724 0
-578 704 0
579 -578 -30 0
-579 578 0
-579 30 0
580 -927 -577 0
-580 927 0
-580 577 0
581 -746 -18 0
-581 746 0
-581 18 0
582 -581 -766 0
-582 581 0
-582 766 0
583 -928 -580 0
-583 928 0
-583 580 0
584 -35 -21 0
-584 35 0
-584 21 0
585 -584 -33 0
-585 584 0
-585 33 0
586 -929 -583 0
-586 929 0
-586 583 0
587 -44 -723 0
-587 44 0
-587 723 0
588 -587 -32 0
-588 587 0
-588 32 0
589 -930 -586 0
-589 930 0
-589 586 0
590 -45 -12 0
-590 45 0
-590 12 0
591 -590 -11 0
-591 590 0
-591 11 0
592 -931 -589 0
-592 931 0
-592 589 0
593 -792 -701 0
-593 792 0
-593 701 0
594 -593 -739 0
-594 593 0
-594 739 0
595 -932 -592 0
-595 932 0
-595 592 0
596 -715 -8 0
-596 715 0
-596 8 0
597 -596 -787 0
-597 596 0
-597 787 0
598 -933 -595 0
-598 933 0
-598 595 0
599 -884 -705 0
-599 884 0
-599 705 0
600 -599 -13 0
-600 599 0
-600 13 0
601 -934 -598 0
-601 934 0
-601 598 0
602 -705 -4 0
-602 705 0
-602 4 0
603 -602 -728 0
-603 602 0
-603 728 0
604 -935 -601 0
-604 935 0
-604 601 0
605 -29 -783 0
-605 29 0
-605 783 0
606 -605 -773 0
-606 605 0
-606 773 0
607 -936 -604 0
-607 936 0
-607 604 0
608 -48 -41 0
-608 48 0
-608 41 0
609 -608 -46 0
-609 608 0
-609 46 0
610 -937 -607 0
-610 937 0
-610 607 0
611 -755 -40 0
-611 755 0
-611 40 0
612 -611 -11 0
-612 611 0
-612 11 0
613 -938 -610 0
-613 938 0
-613 610 0
614 -782 -712 0
-614 782 0
-614 712 0
615 -614 -853 0
-615 614 0
-615 853 0
616 -939 -613 0
-616 939 0
-616 613 0
617 -757 -752 0
-617 757 0
-617 752 0
618 -617 -39 0
-618 617 0
-618 39 0
619 -940 -616 0
-619 940 0
-619 616 0
620 -49 -41 0
-620 49 0
-620 41 0
621 -620 -23 0
-621 620 0
-621 23 0
622 -941 -619 0
-622 941 0
-622 619 0
623 -43 -2 0
-623 43 0
-623 2 0
624 -623 -9 0
-624 623 0
-624 9 0
625 -942 -622 0
-625 942 0
-625 622 0
626 -158 -775 0
-626 158 0
-626 775 0
627 -943 -625 0
-627 943 0
-627 625 0
628 -45 -13 0
-628 45 0
-628 13 0
629 -628 -46 0
-629 628 0
-629 46 0
630 -944 -627 0
-630 944 0
-630 627 0
631 -43 -37 0
-631 43 0
-631 37 0
632 -631 -775 0
-632 631 0
-632 775 0
633 -945 -630 0
-633 945 0
-633 630 0
634 -45 -23 0
-634 45 0
-634 23 0
635 -634 -32 0
-635 634 0
-635 32 0
636 -946 -633 0
-636 946 0
-636 633 0
637 -738 -6 0
-637 738 0
-637 6 0
638 -637 -39 0
-638 637 0
-638 39 0
639 -947 -636 0
-639 947 0
-639 636 0
640 -748 -2 0
-640 748 0
-640 2 0
641 -640 -718 0
-641 640 0
-641 718 0
642 -948 -639 0
-642 948 0
-642 639 0
643 -44 -720 0
-643 44 0
-643 720 0
644 -643 -3 0
-644 643 0
-644 3 0
645 -949 -642 0
-645 949 0
-645 642 0
646 -48 -37 0
-646 48 0
-646 37 0
647 -646 -716 0
-647 646 0
-647 716 0
648 -950 -645 0
-648 950 0
-648 645 0
649 -792 -731 0
-649 792 0
-649 731 0
650 -649 -728 0
-650 649 0
-650 728 0
651 -951 -648 0
-651 951 0
-651 648 0
652 -49 -741 0
-652 49 0
-652 741 0
653 -652 -750 0
-653 652 0
-653 750 0
654 -952 -651 0
-654 952 0
-654 651 0
655 -783 -9 0
-655 783 0
-655 9 0
656 -655 -776 0
-656 655 0
-656 776 0
657 -953 -654 0
-657 953 0
-657 654 0
658 -44 -8 0
-658 44 0
-658 8 0
659 -658 -773 0
-659 658 0
-659 773 0
660 -954 -657 0
-660 954 0
-660 657 0
661 -766 -8 0
-661 766 0
-661 8 0
662 -661 -32 0
-662 661 0
-662 32 0
663 -955 -660 0
-663 955 0
-663 660 0
664 -763 -24 0
-664 763 0
-664 24 0
665 -664 -731 0
-665 664 0
-665 731 0
666 -956 -663 0
-666 956 0
-666 663 0
667 -810 -26 0
-667 810 0
-667 26 0
668 -667 -720 0
-668 667 0
-668 720 0
669 -957 -666 0
-669 957 0
-669 666 0
670 -44 -16 0
-670 44 0
-670 16 0
671 -670 -20 0
-671 670 0
-671 20 0
672 -958 -669 0
-672 958 0
-672 669 0
673 -766 -6 0
-673 766 0
-673 6 0
674 -673 -11 0
-674 673 0
-674 11 0
675 -959 -672 0
-675 959 0
-675 672 0
676 -715 -1 0
-676 715 0
-676 1 0
677 -676 -741 0
-677 676 0
-677 741 0
678 -960 -675 0
-678 960 0
-678 675 0
679 -41 -701 0
-679 41 0
-679 701 0
680 -679 -29 0
-680 679 0
-680 29 0
681 -961 -678 0
-681 961 0
-681 678 0
682 -44 -43 0
-682 44 0
-682 43 0
683 -682 -17 0
-683 682 0
-683 17 0
684 -962 -681 0
-684 962 0
-684 681 0
685 -755 -759 0
-685 755 0
-685 759 0
686 -685 -37 0
-686 685 0
-686 37 0
687 -963 -684 0
-687 963 0
-687 684 0
688 -743 -836 0
-688 743 0
-688 836 0
689 -688 -11 0
-689 688 0
-689 11 0
690 -964 -687 0
-690 964 0
-690 687 0
691 -741 -13 0
-691 741 0
-691 13 0
692 -691 -708 0
-692 691 0
-692 708 0
693 -965 -690 0
-693 965 0
-693 690 0
694 -721 -701 0
-694 721 0
-694 701 0
695 -694 -25 0
-695 694 0
-695 25 0
696 -966 -693 0
-696 966 0
-696 693 0
697 -49 -29 0
-697 49 0
-697 29 0
698 -697 -708 0
-698 697 0
-698 708 0
699 -967 -696 0
-699 967 0
-699 696 0
-700 -3 0
700 3 0
-701 -5 0
701 5 0
-702 -54 0
702 54 0
-703 -52 0
703 52 0
-704 -8 0
704 8 0
-705 -7 0
705 7 0
-706 -9 0
706 9 0
-707 -57 0
707 57 0
-708 -11 0
708 11 0
-709 -60 0
709 60 0
-710 -14 0
710 14 0
-711 -63 0
711 63 0
-712 -4 0
712 4 0
-713 -16 0
713 16 0
-714 -66 0
714 66 0
-715 -17 0
715 17 0
-716 -12 0
716 12 0
-717 -69 0
717 69 0
-718 -20 0
718 20 0
-719 -72 0
719 72 0
-720 -22 0
720 22 0
-721 -21 0
721 21 0
-722 -75 0
722 75 0
-723 -24 0
723 24 0
-724 -15 0
724 15 0
-725 -78 0
725 78 0
-726 -26 0
726 26 0
-727 -81 0
727 81 0
-728 -28 0
728 28 0
-729 -84 0
729 84 0
-730 -87 0
730 87 0
-731 -29 0
731 29 0
-732 -90 0
732 90 0
-733 -31 0
733 31 0
-734 -93 0
734 93 0
-735 -18 0
735 18 0
-736 -96 0
736 96 0
-737 -99 0
737 99 0
-738 -34 0
738 34 0
-739 -25 0
739 25 0
-740 -102 0
740 102 0
-741 -35 0
741 35 0
-742 -105 0
742 105 0
-743 -6 0
743 6 0
-744 -36 0
744 36 0
-745 -108 0
745 108 0
-746 -27 0
746 27 0
-747 -111 0
747 111 0
-748 -30 0
748 30 0
-749 -114 0
749 114 0
-750 -40 0
750 40 0
-751 -117 0
751 117 0
-752 -42 0
752 42 0
-753 -120 0
753 120 0
-754 -123 0
754 123 0
-755 -43 0
755 43 0
-756 -126 0
756 126 0
-757 -44 0
757 44 0
-758 -129 0
758 129 0
-759 -2 0
759 2 0
-760 -132 0
760 132 0
-761 -135 0
761 135 0
-762 -138 0
762 138 0
-763 -45 0
763 45 0
-764 -46 0
764 46 0
-765 -141 0
765 141 0
-766 -10 0
766 10 0
-767 -144 0
767 144 0
-768 -147 0
768 147 0
-769 -150 0
769 150 0
-770 -153 0
770 153 0
-771 -156 0
771 156 0
-772 -41 0
772 41 0
-773 -33 0
773 33 0
-774 -159 0
774 159 0
-775 -13 0
775 13 0
-776 -32 0
776 32 0
-777 -162 0
777 162 0
-778 -165 0
778 165 0
-779 -168 0
779 168 0
-780 -170 0
780 170 0
-781 -173 0
781 173 0
-782 -38 0
782 38 0
-783 -23 0
783 23 0
-784 -176 0
784 176 0
-785 -179 0
785 179 0
-786 -182 0
786 182 0
-787 -39 0
787 39 0
-788 -185 0
788 185 0
-789 -188 0
789 188 0
-790 -191 0
790 191 0
-791 -194 0
791 194 0
-792 -47 0
792 47 0
-793 -197 0
793 197 0
-794 -200 0
794 200 0
-795 -203 0
795 203 0
-796 -206 0
796 206 0
-797 -19 0
797 19 0
-798 -209 0
798 209 0
-799 -212 0
799 212 0
-800 -215 0
800 215 0
-801 -218 0
801 218 0
-802 -221 0
802 221 0
-803 -224 0
803 224 0
-804 -227 0
804 227 0
-805 -230 0
805 230 0
-806 -233 0
806 233 0
-807 -236 0
807 236 0
-808 -239 0
808 239 0
-809 -242 0
809 242 0
-810 -48 0
810 48 0
-811 -245 0
811 245 0
-812 -248 0
812 248 0
-813 -49 0
813 49 0
-814 -251 0
814 251 0
-815 -254 0
815 254 0
-816 -257 0
816 257 0
-817 -260 0
817 260 0
-818 -263 0
818 263 0
-819 -266 0
819 266 0
-820 -269 0
820 269 0
-821 -272 0
821 272 0
-822 -275 0
822 275 0
-823 -278 0
823 278 0
-824 -281 0
824 281 0
-825 -284 0
825 284 0
-826 -287 0
826 287 0
-827 -290 0
827 290 0
-828 -293 0
828 293 0
-829 -296 0
829 296 0
-830 -299 0
830 299 0
-831 -302 0
831 302 0
-832 -305 0
832 305 0
-833 -307 0
833 307 0
-834 -310 0
834 310 0
-835 -313 0
835 313 0
-836 -1 0
836 1 0
-837 -316 0
837 316 0
-838 -319 0
838 319 0
-839 -322 0
839 322 0
-840 -325 0
840 325 0
-841 -328 0
841 328 0
-842 -331 0
842 331 0
-843 -334 0
843 334 0
-844 -337 0
844 337 0
-845 -340 0
845 340 0
-846 -343 0
846 343 0
-847 -346 0
847 346 0
-848 -349 0
848 349 0
-849 -352 0
849 352 0
-850 -355 0
850 355 0
-851 -358 0
851 358 0
-852 -361 0
852 361 0
-853 -37 0
853 37 0
-854 -364 0
854 364 0
-855 -367 0
855 367 0
-856 -370 0
856 370 0
-857 -373 0
857 373 0
-858 -376 0
858 376 0
-859 -379 0
859 379 0
-860 -382 0
860 382 0
-861 -385 0
861 385 0
-862 -388 0
862 388 0
-863 -391 0
863 391 0
-864 -394 0
864 394 0
-865 -397 0
865 397 0
-866 -400 0
866 400 0
-867 -403 0
867 403 0
-868 -406 0
868 406 0
-869 -409 0
869 409 0
-870 -412 0
870 412 0
-871 -415 0
871 415 0
-872 -418 0
872 418 0
-873 -421 0
873 421 0
-874 -424 0
874 424 0
-875 -427 0
875 427 0
-876 -430 0
876 430 0
-877 -433 0
877 433 0
-878 -436 0
878 436 0
-879 -439 0
879 439 0
-880 -442 0
880 442 0
-881 -445 0
881 445 0
-882 -448 0
882 448 0
-883 -451 0
883 451 0
-884 -50 0
884 50 0
-885 -454 0
885 454 0
-886 -457 0
886 457 0
-887 -460 0
887 460 0
-888 -463 0
888 463 0
-889 -466 0
889 466 0
-890 -469 0
890 469 0
-891 -472 0
891 472 0
-892 -475 0
892 475 0
-893 -478 0
893 478 0
-894 -481 0
894 481 0
-895 -484 0
895 484 0
-896 -487 0
896 487 0
-897 -490 0
897 490 0
-898 -493 0
898 493 0
-899 -496 0
899 496 0
-900 -499 0
900 499 0
-901 -502 0
901 502 0
-902 -505 0
902 505 0
-903 -508 0
903 508 0
-904 -511 0
904 511 0
-905 -514 0
905 514 0
-906 -517 0
906 517 0
-907 -520 0
907 520 0
-908 -523 0
908 523 0
-909 -526 0
909 526 0
-910 -529 0
910 529 0
-911 -532 0
911 532 0
-912 -535 0
912 535 0
-913 -538 0
913 538 0
-914 -541 0
914 541 0
-915 -544 0
915 544 0
-916 -547 0
916 547 0
-917 -550 0
917 550 0
-918 -553 0
918 553 0
-919 -556 0
919 556 0
-920 -559 0
920 559 0
-921 -562 0
921 562 0
-922 -565 0
922 565 0
-923 -568 0
923 568 0
-924 -570 0
924 570 0
-925 -573 0
925 573 0
-926 -576 0
926 576 0
-927 -579 0
927 579 0
-928 -582 0
928 582 0
-929 -585 0
929 585 0
-930 -588 0
930 588 0
-931 -591 0
931 591 0
-932 -594 0
932 594 0
-933 -597 0
933 597 0
-934 -600 0
934 600 0
-935 -603 0
935 603 0
-936 -606 0
936 606 0
-937 -609 0
937 609 0
-938 -612 0
938 612 0
-939 -615 0
939 615 0
-940 -618 0
940 618 0
-941 -621 0
941 621 0
-942 -624 0
942 624 0
-943 -626 0
943 626 0
-944 -629 0
944 629 0
-945 -632 0
945 632 0
-946 -635 0
946 635 0
-947 -638 0
947 638 0
-948 -641 0
948 641 0
-949 -644 0
949 644 0
-950 -647 0
950 647 0
-951 -650 0
951 650 0
-952 -653 0
952 653 0
-953 -656 0
953 656 0
-954 -659 0
954 659 0
-955 -662 0
955 662 0
-956 -665 0
956 665 0
-957 -668 0
957 668 0
-958 -671 0
958 671 0
-959 -674 0
959 674 0
-960 -677 0
960 677 0
-961 -680 0
961 680 0
-962 -683 0
962 683 0
-963 -686 0
963 686 0
-964 -689 0
964 689 0
-965 -692 0
965 692 0
-966 -695 0
966 695 0
-967 -698 0
967 698 0
699 0
